(set-logic QF_S)
(declare-fun var0 () String)
(assert (RegexIn var0 (RegexConcat (RegexUnion (RegexPlus (Str2Reg "00")) (RegexPlus (Str2Reg "11"))) (RegexConcat (RegexPlus (RegexUnion (Str2Reg "22") (Str2Reg "333"))) (RegexConcat (RegexUnion (RegexUnion (Str2Reg "444") (Str2Reg "555")) (RegexUnion (Str2Reg "66") (Str2Reg "777"))) (RegexConcat (RegexPlus (RegexStar (Str2Reg "8"))) (RegexConcat (RegexUnion (RegexStar (Str2Reg "999")) (RegexStar (Str2Reg "aa"))) (RegexConcat (RegexStar (RegexUnion (Str2Reg "bb") (Str2Reg "ccc"))) (RegexConcat (RegexUnion (RegexUnion (Str2Reg "dd") (Str2Reg "e")) (RegexUnion (Str2Reg "ff") (Str2Reg "gg"))) (RegexConcat (RegexUnion (RegexUnion (Str2Reg "h") (Str2Reg "i")) (RegexUnion (Str2Reg "jj") (Str2Reg "kk"))) (RegexConcat (RegexPlus (RegexStar (Str2Reg "l"))) (RegexConcat (RegexStar (RegexPlus (Str2Reg "m"))) (RegexConcat (RegexUnion (RegexUnion (Str2Reg "n") (Str2Reg "o")) (RegexUnion (Str2Reg "pp") (Str2Reg "q"))) (RegexConcat (RegexStar (RegexUnion (Str2Reg "rrr") (Str2Reg "sss"))) (RegexConcat (RegexPlus (RegexPlus (Str2Reg "ttt"))) (RegexConcat (RegexStar (RegexPlus (Str2Reg "uu"))) (RegexConcat (RegexStar (RegexPlus (Str2Reg "vvv"))) (RegexConcat (RegexStar (RegexUnion (Str2Reg "ww") (Str2Reg "xx"))) (RegexConcat (RegexPlus (RegexPlus (Str2Reg "yyy"))) (RegexConcat (RegexPlus (RegexStar (Str2Reg "zz"))) (RegexConcat (RegexStar (RegexStar (Str2Reg "AAA"))) (RegexConcat (RegexStar (RegexStar (Str2Reg "BBB"))) (RegexConcat (RegexPlus (RegexPlus (Str2Reg "C"))) (RegexConcat (RegexPlus (RegexStar (Str2Reg "DD"))) (RegexConcat (RegexStar (RegexStar (Str2Reg "E"))) (RegexConcat (RegexUnion (RegexPlus (Str2Reg "FF")) (RegexPlus (Str2Reg "G"))) (RegexConcat (RegexUnion (RegexPlus (Str2Reg "HHH")) (RegexPlus (Str2Reg "I"))) (RegexConcat (RegexUnion (RegexUnion (Str2Reg "JJ") (Str2Reg "KKK")) (RegexUnion (Str2Reg "L") (Str2Reg "MMM"))) (RegexConcat (RegexPlus (RegexPlus (Str2Reg "NN"))) (RegexConcat (RegexStar (RegexUnion (Str2Reg "OO") (Str2Reg "PPP"))) (RegexPlus (RegexUnion (Str2Reg "QQ") (Str2Reg "RR")))))))))))))))))))))))))))))))))
(check-sat)